* http://pic.dhe.ibm.com/infocenter/cosinfoc/v12r4/topic/ilog.odms.cplex.help/CPLEX/File_formats_reference/topics/MPS_ext_quadobj.html
NAME          problem
ROWS
 N  obj
 G  c1
COLUMNS
    a         obj                  1   c1                   1
    b         obj                  1   c1                   1
RHS
    rhs       c1                  10
QUADOBJ
    a         a                    1
    a         b                    2
    b         b                    7
ENDATA
